TC_ILP/fir1_1.0.lp
Minimize
M1 + M2
Subject To
x0,10 = 1
x1,10 = 1
x2,9 + x2,10 = 1
x3,8 + x3,9 + x3,10 = 1
x4,8 + x4,9 + x4,10 = 1
x5,8 + x5,9 + x5,10 = 1
x6,6 + x6,7 + x6,8 + x6,9 + x6,10 = 1
x7,6 + x7,7 + x7,8 + x7,9 + x7,10 = 1
x8,6 + x8,7 + x8,8 + x8,9 + x8,10 = 1
x9,4 + x9,5 + x9,6 + x9,7 + x9,8 + x9,9 + x9,10 = 1
x10,3 + x10,4 + x10,5 + x10,6 + x10,7 + x10,8 + x10,9 + x10,10 = 1
x11,9 = 1
x12,8 = 1
x13,7 + x13,8 + x13,9 = 1
x14,7 = 1
x15,6 = 1
x16,5 = 1
x17,5 + x17,6 + x17,7 + x17,8 + x17,9 = 1
x18,4 = 1
x19,3 = 1
x20,2 = 1
x21,12 = 1
x22,12 = 1
x23,12 = 1
x24,12 = 1
x25,11 + x25,12 = 1
x26,11 + x26,12 = 1
x27,10 + x27,11 + x27,12 = 1
x28,10 + x28,11 + x28,12 = 1
x29,10 + x29,11 + x29,12 = 1
x30,10 + x30,11 + x30,12 = 1
x31,10 + x31,11 + x31,12 = 1
x32,10 + x32,11 + x32,12 = 1
x33,8 + x33,9 + x33,10 + x33,11 + x33,12 = 1
x34,8 + x34,9 + x34,10 + x34,11 + x34,12 = 1
x35,8 + x35,9 + x35,10 + x35,11 + x35,12 = 1
x36,8 + x36,9 + x36,10 + x36,11 + x36,12 = 1
x37,8 + x37,9 + x37,10 + x37,11 + x37,12 = 1
x38,8 + x38,9 + x38,10 + x38,11 + x38,12 = 1
x39,6 + x39,7 + x39,8 + x39,9 + x39,10 + x39,11 + x39,12 = 1
x40,6 + x40,7 + x40,8 + x40,9 + x40,10 + x40,11 + x40,12 = 1
x41,5 + x41,6 + x41,7 + x41,8 + x41,9 + x41,10 + x41,11 + x41,12 = 1
x42,5 + x42,6 + x42,7 + x42,8 + x42,9 + x42,10 + x42,11 + x42,12 = 1
x43,1 = 1
x9,4 + x9,3 + x10,4 + x10,3 - M1 <= 0
x16,5 + x17,5 + x41,5 + x42,5 - M2 <= 0
x9,5 + x9,4 + x10,5 + x10,4 - M1 <= 0
x15,6 + x17,6 + x39,6 + x40,6 + x41,6 + x42,6 - M2 <= 0
x6,6 + x6,5 + x7,6 + x7,5 + x8,6 + x8,5 + x9,6 + x9,5 + x10,6 + x10,5 - M1 <= 0
x13,7 + x14,7 + x17,7 + x39,7 + x40,7 + x41,7 + x42,7 - M2 <= 0
x6,7 + x6,6 + x7,7 + x7,6 + x8,7 + x8,6 + x9,7 + x9,6 + x10,7 + x10,6 - M1 <= 0
x12,8 + x13,8 + x17,8 + x33,8 + x34,8 + x35,8 + x36,8 + x37,8 + x38,8 + x39,8 + x40,8 + x41,8 + x42,8 - M2 <= 0
x3,8 + x3,7 + x4,8 + x4,7 + x5,8 + x5,7 + x6,8 + x6,7 + x7,8 + x7,7 + x8,8 + x8,7 + x9,8 + x9,7 + x10,8 + x10,7 - M1 <= 0
x11,9 + x13,9 + x17,9 + x33,9 + x34,9 + x35,9 + x36,9 + x37,9 + x38,9 + x39,9 + x40,9 + x41,9 + x42,9 - M2 <= 0
x2,9 + x2,8 + x3,9 + x3,8 + x4,9 + x4,8 + x5,9 + x5,8 + x6,9 + x6,8 + x7,9 + x7,8 + x8,9 + x8,8 + x9,9 + x9,8 + x10,9 + x10,8 - M1 <= 0
x27,10 + x28,10 + x29,10 + x30,10 + x31,10 + x32,10 + x33,10 + x34,10 + x35,10 + x36,10 + x37,10 + x38,10 + x39,10 + x40,10 + x41,10 + x42,10 - M2 <= 0
x0,10 + x0,9 + x1,10 + x1,9 + x2,10 + x2,9 + x3,10 + x3,9 + x4,10 + x4,9 + x5,10 + x5,9 + x6,10 + x6,9 + x7,10 + x7,9 + x8,10 + x8,9 + x9,10 + x9,9 + x10,10 + x10,9 - M1 <= 0
x25,11 + x26,11 + x27,11 + x28,11 + x29,11 + x30,11 + x31,11 + x32,11 + x33,11 + x34,11 + x35,11 + x36,11 + x37,11 + x38,11 + x39,11 + x40,11 + x41,11 + x42,11 - M2 <= 0
x0,11 + x0,10 + x1,11 + x1,10 + x2,11 + x2,10 + x3,11 + x3,10 + x4,11 + x4,10 + x5,11 + x5,10 + x6,11 + x6,10 + x7,11 + x7,10 + x8,11 + x8,10 + x9,11 + x9,10 + x10,11 + x10,10 - M1 <= 0
x21,12 + x22,12 + x23,12 + x24,12 + x25,12 + x26,12 + x27,12 + x28,12 + x29,12 + x30,12 + x31,12 + x32,12 + x33,12 + x34,12 + x35,12 + x36,12 + x37,12 + x38,12 + x39,12 + x40,12 + x41,12 + x42,12 - M2 <= 0
10 x0,10 - 12 x21,12 <= -2
10 x0,10 - 12 x22,12 <= -2
10 x1,10 - 12 x23,12 <= -2
10 x1,10 - 12 x24,12 <= -2
9 x2,9 + 10 x2,10 - 11 x25,11 - 12 x25,12 <= -2
9 x2,9 + 10 x2,10 - 11 x26,11 - 12 x26,12 <= -2
8 x3,8 + 9 x3,9 + 10 x3,10 - 10 x27,10 - 11 x27,11 - 12 x27,12 <= -2
8 x3,8 + 9 x3,9 + 10 x3,10 - 10 x28,10 - 11 x28,11 - 12 x28,12 <= -2
8 x4,8 + 9 x4,9 + 10 x4,10 - 10 x29,10 - 11 x29,11 - 12 x29,12 <= -2
8 x4,8 + 9 x4,9 + 10 x4,10 - 10 x30,10 - 11 x30,11 - 12 x30,12 <= -2
8 x5,8 + 9 x5,9 + 10 x5,10 - 10 x31,10 - 11 x31,11 - 12 x31,12 <= -2
8 x5,8 + 9 x5,9 + 10 x5,10 - 10 x32,10 - 11 x32,11 - 12 x32,12 <= -2
6 x6,6 + 7 x6,7 + 8 x6,8 + 9 x6,9 + 10 x6,10 - 8 x33,8 - 9 x33,9 - 10 x33,10 - 11 x33,11 - 12 x33,12 <= -2
6 x6,6 + 7 x6,7 + 8 x6,8 + 9 x6,9 + 10 x6,10 - 8 x34,8 - 9 x34,9 - 10 x34,10 - 11 x34,11 - 12 x34,12 <= -2
6 x7,6 + 7 x7,7 + 8 x7,8 + 9 x7,9 + 10 x7,10 - 8 x35,8 - 9 x35,9 - 10 x35,10 - 11 x35,11 - 12 x35,12 <= -2
6 x7,6 + 7 x7,7 + 8 x7,8 + 9 x7,9 + 10 x7,10 - 8 x36,8 - 9 x36,9 - 10 x36,10 - 11 x36,11 - 12 x36,12 <= -2
6 x8,6 + 7 x8,7 + 8 x8,8 + 9 x8,9 + 10 x8,10 - 8 x37,8 - 9 x37,9 - 10 x37,10 - 11 x37,11 - 12 x37,12 <= -2
6 x8,6 + 7 x8,7 + 8 x8,8 + 9 x8,9 + 10 x8,10 - 8 x38,8 - 9 x38,9 - 10 x38,10 - 11 x38,11 - 12 x38,12 <= -2
4 x9,4 + 5 x9,5 + 6 x9,6 + 7 x9,7 + 8 x9,8 + 9 x9,9 + 10 x9,10 - 6 x39,6 - 7 x39,7 - 8 x39,8 - 9 x39,9 - 10 x39,10 - 11 x39,11 - 12 x39,12 <= -2
4 x9,4 + 5 x9,5 + 6 x9,6 + 7 x9,7 + 8 x9,8 + 9 x9,9 + 10 x9,10 - 6 x40,6 - 7 x40,7 - 8 x40,8 - 9 x40,9 - 10 x40,10 - 11 x40,11 - 12 x40,12 <= -2
3 x10,3 + 4 x10,4 + 5 x10,5 + 6 x10,6 + 7 x10,7 + 8 x10,8 + 9 x10,9 + 10 x10,10 - 5 x41,5 - 6 x41,6 - 7 x41,7 - 8 x41,8 - 9 x41,9 - 10 x41,10 - 11 x41,11 - 12 x41,12 <= -2
3 x10,3 + 4 x10,4 + 5 x10,5 + 6 x10,6 + 7 x10,7 + 8 x10,8 + 9 x10,9 + 10 x10,10 - 5 x42,5 - 6 x42,6 - 7 x42,7 - 8 x42,8 - 9 x42,9 - 10 x42,10 - 11 x42,11 - 12 x42,12 <= -2
9 x11,9 - 10 x0,10 <= -1
9 x11,9 - 10 x1,10 <= -1
8 x12,8 - 9 x11,9 <= -1
8 x12,8 - 9 x2,9 - 10 x2,10 <= -1
7 x13,7 + 8 x13,8 + 9 x13,9 - 8 x3,8 - 9 x3,9 - 10 x3,10 <= -1
7 x13,7 + 8 x13,8 + 9 x13,9 - 8 x4,8 - 9 x4,9 - 10 x4,10 <= -1
7 x14,7 - 8 x5,8 - 9 x5,9 - 10 x5,10 <= -1
7 x14,7 - 8 x12,8 <= -1
6 x15,6 - 7 x13,7 - 8 x13,8 - 9 x13,9 <= -1
6 x15,6 - 7 x14,7 <= -1
5 x16,5 - 6 x15,6 <= -1
5 x16,5 - 6 x8,6 - 7 x8,7 - 8 x8,8 - 9 x8,9 - 10 x8,10 <= -1
5 x17,5 + 6 x17,6 + 7 x17,7 + 8 x17,8 + 9 x17,9 - 6 x6,6 - 7 x6,7 - 8 x6,8 - 9 x6,9 - 10 x6,10 <= -1
5 x17,5 + 6 x17,6 + 7 x17,7 + 8 x17,8 + 9 x17,9 - 6 x7,6 - 7 x7,7 - 8 x7,8 - 9 x7,9 - 10 x7,10 <= -1
4 x18,4 - 5 x17,5 - 6 x17,6 - 7 x17,7 - 8 x17,8 - 9 x17,9 <= -1
4 x18,4 - 5 x16,5 <= -1
3 x19,3 - 4 x18,4 <= -1
3 x19,3 - 4 x9,4 - 5 x9,5 - 6 x9,6 - 7 x9,7 - 8 x9,8 - 9 x9,9 - 10 x9,10 <= -1
2 x20,2 - 3 x10,3 - 4 x10,4 - 5 x10,5 - 6 x10,6 - 7 x10,7 - 8 x10,8 - 9 x10,9 - 10 x10,10 <= -1
2 x20,2 - 3 x19,3 <= -1
1 x43,1 - 2 x20,2 <= -1
Bounds
0 <= x0,10 <= 1
0 <= x1,10 <= 1
0 <= x2,9 <= 1
0 <= x2,10 <= 1
0 <= x3,8 <= 1
0 <= x3,9 <= 1
0 <= x3,10 <= 1
0 <= x4,8 <= 1
0 <= x4,9 <= 1
0 <= x4,10 <= 1
0 <= x5,8 <= 1
0 <= x5,9 <= 1
0 <= x5,10 <= 1
0 <= x6,6 <= 1
0 <= x6,7 <= 1
0 <= x6,8 <= 1
0 <= x6,9 <= 1
0 <= x6,10 <= 1
0 <= x7,6 <= 1
0 <= x7,7 <= 1
0 <= x7,8 <= 1
0 <= x7,9 <= 1
0 <= x7,10 <= 1
0 <= x8,6 <= 1
0 <= x8,7 <= 1
0 <= x8,8 <= 1
0 <= x8,9 <= 1
0 <= x8,10 <= 1
0 <= x9,4 <= 1
0 <= x9,5 <= 1
0 <= x9,6 <= 1
0 <= x9,7 <= 1
0 <= x9,8 <= 1
0 <= x9,9 <= 1
0 <= x9,10 <= 1
0 <= x10,3 <= 1
0 <= x10,4 <= 1
0 <= x10,5 <= 1
0 <= x10,6 <= 1
0 <= x10,7 <= 1
0 <= x10,8 <= 1
0 <= x10,9 <= 1
0 <= x10,10 <= 1
0 <= x11,9 <= 1
0 <= x12,8 <= 1
0 <= x13,7 <= 1
0 <= x13,8 <= 1
0 <= x13,9 <= 1
0 <= x14,7 <= 1
0 <= x15,6 <= 1
0 <= x16,5 <= 1
0 <= x17,5 <= 1
0 <= x17,6 <= 1
0 <= x17,7 <= 1
0 <= x17,8 <= 1
0 <= x17,9 <= 1
0 <= x18,4 <= 1
0 <= x19,3 <= 1
0 <= x20,2 <= 1
0 <= x21,12 <= 1
0 <= x22,12 <= 1
0 <= x23,12 <= 1
0 <= x24,12 <= 1
0 <= x25,11 <= 1
0 <= x25,12 <= 1
0 <= x26,11 <= 1
0 <= x26,12 <= 1
0 <= x27,10 <= 1
0 <= x27,11 <= 1
0 <= x27,12 <= 1
0 <= x28,10 <= 1
0 <= x28,11 <= 1
0 <= x28,12 <= 1
0 <= x29,10 <= 1
0 <= x29,11 <= 1
0 <= x29,12 <= 1
0 <= x30,10 <= 1
0 <= x30,11 <= 1
0 <= x30,12 <= 1
0 <= x31,10 <= 1
0 <= x31,11 <= 1
0 <= x31,12 <= 1
0 <= x32,10 <= 1
0 <= x32,11 <= 1
0 <= x32,12 <= 1
0 <= x33,8 <= 1
0 <= x33,9 <= 1
0 <= x33,10 <= 1
0 <= x33,11 <= 1
0 <= x33,12 <= 1
0 <= x34,8 <= 1
0 <= x34,9 <= 1
0 <= x34,10 <= 1
0 <= x34,11 <= 1
0 <= x34,12 <= 1
0 <= x35,8 <= 1
0 <= x35,9 <= 1
0 <= x35,10 <= 1
0 <= x35,11 <= 1
0 <= x35,12 <= 1
0 <= x36,8 <= 1
0 <= x36,9 <= 1
0 <= x36,10 <= 1
0 <= x36,11 <= 1
0 <= x36,12 <= 1
0 <= x37,8 <= 1
0 <= x37,9 <= 1
0 <= x37,10 <= 1
0 <= x37,11 <= 1
0 <= x37,12 <= 1
0 <= x38,8 <= 1
0 <= x38,9 <= 1
0 <= x38,10 <= 1
0 <= x38,11 <= 1
0 <= x38,12 <= 1
0 <= x39,6 <= 1
0 <= x39,7 <= 1
0 <= x39,8 <= 1
0 <= x39,9 <= 1
0 <= x39,10 <= 1
0 <= x39,11 <= 1
0 <= x39,12 <= 1
0 <= x40,6 <= 1
0 <= x40,7 <= 1
0 <= x40,8 <= 1
0 <= x40,9 <= 1
0 <= x40,10 <= 1
0 <= x40,11 <= 1
0 <= x40,12 <= 1
0 <= x41,5 <= 1
0 <= x41,6 <= 1
0 <= x41,7 <= 1
0 <= x41,8 <= 1
0 <= x41,9 <= 1
0 <= x41,10 <= 1
0 <= x41,11 <= 1
0 <= x41,12 <= 1
0 <= x42,5 <= 1
0 <= x42,6 <= 1
0 <= x42,7 <= 1
0 <= x42,8 <= 1
0 <= x42,9 <= 1
0 <= x42,10 <= 1
0 <= x42,11 <= 1
0 <= x42,12 <= 1
0 <= x43,1 <= 1
M1 >= 1
M2 >= 1
Generals
x0,10
x1,10
x2,9
x2,10
x3,8
x3,9
x3,10
x4,8
x4,9
x4,10
x5,8
x5,9
x5,10
x6,6
x6,7
x6,8
x6,9
x6,10
x7,6
x7,7
x7,8
x7,9
x7,10
x8,6
x8,7
x8,8
x8,9
x8,10
x9,4
x9,5
x9,6
x9,7
x9,8
x9,9
x9,10
x10,3
x10,4
x10,5
x10,6
x10,7
x10,8
x10,9
x10,10
x11,9
x12,8
x13,7
x13,8
x13,9
x14,7
x15,6
x16,5
x17,5
x17,6
x17,7
x17,8
x17,9
x18,4
x19,3
x20,2
x21,12
x22,12
x23,12
x24,12
x25,11
x25,12
x26,11
x26,12
x27,10
x27,11
x27,12
x28,10
x28,11
x28,12
x29,10
x29,11
x29,12
x30,10
x30,11
x30,12
x31,10
x31,11
x31,12
x32,10
x32,11
x32,12
x33,8
x33,9
x33,10
x33,11
x33,12
x34,8
x34,9
x34,10
x34,11
x34,12
x35,8
x35,9
x35,10
x35,11
x35,12
x36,8
x36,9
x36,10
x36,11
x36,12
x37,8
x37,9
x37,10
x37,11
x37,12
x38,8
x38,9
x38,10
x38,11
x38,12
x39,6
x39,7
x39,8
x39,9
x39,10
x39,11
x39,12
x40,6
x40,7
x40,8
x40,9
x40,10
x40,11
x40,12
x41,5
x41,6
x41,7
x41,8
x41,9
x41,10
x41,11
x41,12
x42,5
x42,6
x42,7
x42,8
x42,9
x42,10
x42,11
x42,12
x43,1
M1
M2
End
