TC_ILP/fir1_1.0.sol
<?xml version = "1.0" encoding="UTF-8" standalone="yes"?>
<CPLEXSolution version="1.2">
 <header
   problemName="fir1_1.0.lp"
   solutionName="incumbent"
   solutionIndex="-1"
   objectiveValue="8"
   solutionTypeValue="3"
   solutionTypeString="primal"
   solutionStatusValue="101"
   solutionStatusString="integer optimal solution"
   solutionMethodString="mip"
   primalFeasible="1"
   dualFeasible="1"
   MIPNodes="0"
   MIPIterations="27"
   writeLevel="1"/>
 <quality
   epInt="1.0000000000000001e-05"
   epRHS="9.9999999999999995e-07"
   maxIntInfeas="4.4408920985006262e-16"
   maxPrimalInfeas="4.4408920985006262e-16"
   maxX="4"
   maxSlack="3"/>
 <linearConstraints>
  <constraint name="c1" index="0" slack="0"/>
  <constraint name="c2" index="1" slack="0"/>
  <constraint name="c3" index="2" slack="0"/>
  <constraint name="c4" index="3" slack="0"/>
  <constraint name="c5" index="4" slack="0"/>
  <constraint name="c6" index="5" slack="0"/>
  <constraint name="c7" index="6" slack="0"/>
  <constraint name="c8" index="7" slack="0"/>
  <constraint name="c9" index="8" slack="0"/>
  <constraint name="c10" index="9" slack="0"/>
  <constraint name="c11" index="10" slack="0"/>
  <constraint name="c12" index="11" slack="0"/>
  <constraint name="c13" index="12" slack="0"/>
  <constraint name="c14" index="13" slack="0"/>
  <constraint name="c15" index="14" slack="0"/>
  <constraint name="c16" index="15" slack="0"/>
  <constraint name="c17" index="16" slack="0"/>
  <constraint name="c18" index="17" slack="0"/>
  <constraint name="c19" index="18" slack="0"/>
  <constraint name="c20" index="19" slack="0"/>
  <constraint name="c21" index="20" slack="0"/>
  <constraint name="c22" index="21" slack="0"/>
  <constraint name="c23" index="22" slack="0"/>
  <constraint name="c24" index="23" slack="0"/>
  <constraint name="c25" index="24" slack="0"/>
  <constraint name="c26" index="25" slack="0"/>
  <constraint name="c27" index="26" slack="0"/>
  <constraint name="c28" index="27" slack="0"/>
  <constraint name="c29" index="28" slack="0"/>
  <constraint name="c30" index="29" slack="0"/>
  <constraint name="c31" index="30" slack="0"/>
  <constraint name="c32" index="31" slack="0"/>
  <constraint name="c33" index="32" slack="0"/>
  <constraint name="c34" index="33" slack="0"/>
  <constraint name="c35" index="34" slack="0"/>
  <constraint name="c36" index="35" slack="0"/>
  <constraint name="c37" index="36" slack="0"/>
  <constraint name="c38" index="37" slack="0"/>
  <constraint name="c39" index="38" slack="0"/>
  <constraint name="c40" index="39" slack="0"/>
  <constraint name="c41" index="40" slack="0"/>
  <constraint name="c42" index="41" slack="0"/>
  <constraint name="c43" index="42" slack="0"/>
  <constraint name="c44" index="43" slack="0"/>
  <constraint name="c45" index="44" slack="2"/>
  <constraint name="c46" index="45" slack="0"/>
  <constraint name="c47" index="46" slack="3"/>
  <constraint name="c48" index="47" slack="1"/>
  <constraint name="c49" index="48" slack="1"/>
  <constraint name="c50" index="49" slack="2"/>
  <constraint name="c51" index="50" slack="1"/>
  <constraint name="c52" index="51" slack="0"/>
  <constraint name="c53" index="52" slack="1"/>
  <constraint name="c54" index="53" slack="0"/>
  <constraint name="c55" index="54" slack="0"/>
  <constraint name="c56" index="55" slack="0"/>
  <constraint name="c57" index="56" slack="1"/>
  <constraint name="c58" index="57" slack="-4.4408920985006262e-16"/>
  <constraint name="c59" index="58" slack="2"/>
  <constraint name="c60" index="59" slack="4.4408920985006262e-16"/>
  <constraint name="c61" index="60" slack="0"/>
  <constraint name="c62" index="61" slack="0"/>
  <constraint name="c63" index="62" slack="0"/>
  <constraint name="c64" index="63" slack="0"/>
  <constraint name="c65" index="64" slack="0"/>
  <constraint name="c66" index="65" slack="0"/>
  <constraint name="c67" index="66" slack="0"/>
  <constraint name="c68" index="67" slack="1"/>
  <constraint name="c69" index="68" slack="0"/>
  <constraint name="c70" index="69" slack="0"/>
  <constraint name="c71" index="70" slack="0"/>
  <constraint name="c72" index="71" slack="1"/>
  <constraint name="c73" index="72" slack="0"/>
  <constraint name="c74" index="73" slack="1"/>
  <constraint name="c75" index="74" slack="1"/>
  <constraint name="c76" index="75" slack="0"/>
  <constraint name="c77" index="76" slack="1"/>
  <constraint name="c78" index="77" slack="0"/>
  <constraint name="c79" index="78" slack="0"/>
  <constraint name="c80" index="79" slack="0"/>
  <constraint name="c81" index="80" slack="0"/>
  <constraint name="c82" index="81" slack="0"/>
  <constraint name="c83" index="82" slack="0"/>
  <constraint name="c84" index="83" slack="0"/>
  <constraint name="c85" index="84" slack="0"/>
  <constraint name="c86" index="85" slack="0"/>
  <constraint name="c87" index="86" slack="0"/>
  <constraint name="c88" index="87" slack="0"/>
  <constraint name="c89" index="88" slack="0"/>
  <constraint name="c90" index="89" slack="0"/>
  <constraint name="c91" index="90" slack="0"/>
  <constraint name="c92" index="91" slack="0"/>
  <constraint name="c93" index="92" slack="0"/>
  <constraint name="c94" index="93" slack="0"/>
  <constraint name="c95" index="94" slack="0"/>
  <constraint name="c96" index="95" slack="0"/>
  <constraint name="c97" index="96" slack="0"/>
  <constraint name="c98" index="97" slack="0"/>
  <constraint name="c99" index="98" slack="0"/>
  <constraint name="c100" index="99" slack="0"/>
  <constraint name="c101" index="100" slack="0"/>
  <constraint name="c102" index="101" slack="0"/>
  <constraint name="c103" index="102" slack="0"/>
 </linearConstraints>
 <variables>
  <variable name="M1" index="0" value="4"/>
  <variable name="M2" index="1" value="4"/>
  <variable name="x0,10" index="2" value="1"/>
  <variable name="x1,10" index="3" value="1"/>
  <variable name="x2,9" index="4" value="1"/>
  <variable name="x2,10" index="5" value="0"/>
  <variable name="x3,8" index="6" value="1"/>
  <variable name="x3,9" index="7" value="0"/>
  <variable name="x3,10" index="8" value="-0"/>
  <variable name="x4,8" index="9" value="1"/>
  <variable name="x4,9" index="10" value="0"/>
  <variable name="x4,10" index="11" value="-0"/>
  <variable name="x5,8" index="12" value="1"/>
  <variable name="x5,9" index="13" value="0"/>
  <variable name="x5,10" index="14" value="-0"/>
  <variable name="x6,6" index="15" value="1"/>
  <variable name="x6,7" index="16" value="0"/>
  <variable name="x6,8" index="17" value="0"/>
  <variable name="x6,9" index="18" value="0"/>
  <variable name="x6,10" index="19" value="0"/>
  <variable name="x7,6" index="20" value="1"/>
  <variable name="x7,7" index="21" value="0"/>
  <variable name="x7,8" index="22" value="0"/>
  <variable name="x7,9" index="23" value="0"/>
  <variable name="x7,10" index="24" value="0"/>
  <variable name="x8,6" index="25" value="1"/>
  <variable name="x8,7" index="26" value="0"/>
  <variable name="x8,8" index="27" value="0"/>
  <variable name="x8,9" index="28" value="0"/>
  <variable name="x8,10" index="29" value="0"/>
  <variable name="x9,4" index="30" value="1"/>
  <variable name="x9,5" index="31" value="0"/>
  <variable name="x9,6" index="32" value="0"/>
  <variable name="x9,7" index="33" value="0"/>
  <variable name="x9,8" index="34" value="0"/>
  <variable name="x9,9" index="35" value="0"/>
  <variable name="x9,10" index="36" value="0"/>
  <variable name="x10,3" index="37" value="1"/>
  <variable name="x10,4" index="38" value="0"/>
  <variable name="x10,5" index="39" value="0"/>
  <variable name="x10,6" index="40" value="0"/>
  <variable name="x10,7" index="41" value="0"/>
  <variable name="x10,8" index="42" value="0"/>
  <variable name="x10,9" index="43" value="0"/>
  <variable name="x10,10" index="44" value="0"/>
  <variable name="x11,9" index="45" value="1"/>
  <variable name="x12,8" index="46" value="1"/>
  <variable name="x13,7" index="47" value="1"/>
  <variable name="x13,8" index="48" value="0"/>
  <variable name="x13,9" index="49" value="0"/>
  <variable name="x14,7" index="50" value="1"/>
  <variable name="x15,6" index="51" value="1"/>
  <variable name="x16,5" index="52" value="1"/>
  <variable name="x17,5" index="53" value="1"/>
  <variable name="x17,6" index="54" value="0"/>
  <variable name="x17,7" index="55" value="0"/>
  <variable name="x17,8" index="56" value="0"/>
  <variable name="x17,9" index="57" value="0"/>
  <variable name="x18,4" index="58" value="1"/>
  <variable name="x19,3" index="59" value="1"/>
  <variable name="x20,2" index="60" value="1"/>
  <variable name="x21,12" index="61" value="1"/>
  <variable name="x22,12" index="62" value="1"/>
  <variable name="x23,12" index="63" value="1"/>
  <variable name="x24,12" index="64" value="1"/>
  <variable name="x25,11" index="65" value="1"/>
  <variable name="x25,12" index="66" value="0"/>
  <variable name="x26,11" index="67" value="1"/>
  <variable name="x26,12" index="68" value="0"/>
  <variable name="x27,10" index="69" value="1"/>
  <variable name="x27,11" index="70" value="-0"/>
  <variable name="x27,12" index="71" value="0"/>
  <variable name="x28,10" index="72" value="-0"/>
  <variable name="x28,11" index="73" value="1"/>
  <variable name="x28,12" index="74" value="0"/>
  <variable name="x29,10" index="75" value="1"/>
  <variable name="x29,11" index="76" value="-0"/>
  <variable name="x29,12" index="77" value="0"/>
  <variable name="x30,10" index="78" value="1"/>
  <variable name="x30,11" index="79" value="-0"/>
  <variable name="x30,12" index="80" value="0"/>
  <variable name="x31,10" index="81" value="1"/>
  <variable name="x31,11" index="82" value="-0"/>
  <variable name="x31,12" index="83" value="0"/>
  <variable name="x32,10" index="84" value="0"/>
  <variable name="x32,11" index="85" value="1.0000000000000004"/>
  <variable name="x32,12" index="86" value="-4.4408920985006262e-16"/>
  <variable name="x33,8" index="87" value="1"/>
  <variable name="x33,9" index="88" value="0"/>
  <variable name="x33,10" index="89" value="-0"/>
  <variable name="x33,11" index="90" value="-0"/>
  <variable name="x33,12" index="91" value="-0"/>
  <variable name="x34,8" index="92" value="0"/>
  <variable name="x34,9" index="93" value="1"/>
  <variable name="x34,10" index="94" value="-0"/>
  <variable name="x34,11" index="95" value="-0"/>
  <variable name="x34,12" index="96" value="-0"/>
  <variable name="x35,8" index="97" value="0"/>
  <variable name="x35,9" index="98" value="1"/>
  <variable name="x35,10" index="99" value="-0"/>
  <variable name="x35,11" index="100" value="-0"/>
  <variable name="x35,12" index="101" value="-0"/>
  <variable name="x36,8" index="102" value="1"/>
  <variable name="x36,9" index="103" value="-0"/>
  <variable name="x36,10" index="104" value="-0"/>
  <variable name="x36,11" index="105" value="-0"/>
  <variable name="x36,12" index="106" value="-0"/>
  <variable name="x37,8" index="107" value="-0"/>
  <variable name="x37,9" index="108" value="1"/>
  <variable name="x37,10" index="109" value="-0"/>
  <variable name="x37,11" index="110" value="-0"/>
  <variable name="x37,12" index="111" value="-0"/>
  <variable name="x38,8" index="112" value="1"/>
  <variable name="x38,9" index="113" value="-0"/>
  <variable name="x38,10" index="114" value="-0"/>
  <variable name="x38,11" index="115" value="-0"/>
  <variable name="x38,12" index="116" value="-0"/>
  <variable name="x39,6" index="117" value="1"/>
  <variable name="x39,7" index="118" value="-0"/>
  <variable name="x39,8" index="119" value="0"/>
  <variable name="x39,9" index="120" value="0"/>
  <variable name="x39,10" index="121" value="0"/>
  <variable name="x39,11" index="122" value="0"/>
  <variable name="x39,12" index="123" value="0"/>
  <variable name="x40,6" index="124" value="1"/>
  <variable name="x40,7" index="125" value="-0"/>
  <variable name="x40,8" index="126" value="0"/>
  <variable name="x40,9" index="127" value="0"/>
  <variable name="x40,10" index="128" value="0"/>
  <variable name="x40,11" index="129" value="0"/>
  <variable name="x40,12" index="130" value="0"/>
  <variable name="x41,5" index="131" value="1"/>
  <variable name="x41,6" index="132" value="0"/>
  <variable name="x41,7" index="133" value="0"/>
  <variable name="x41,8" index="134" value="0"/>
  <variable name="x41,9" index="135" value="0"/>
  <variable name="x41,10" index="136" value="0"/>
  <variable name="x41,11" index="137" value="0"/>
  <variable name="x41,12" index="138" value="0"/>
  <variable name="x42,5" index="139" value="1"/>
  <variable name="x42,6" index="140" value="0"/>
  <variable name="x42,7" index="141" value="0"/>
  <variable name="x42,8" index="142" value="0"/>
  <variable name="x42,9" index="143" value="0"/>
  <variable name="x42,10" index="144" value="0"/>
  <variable name="x42,11" index="145" value="0"/>
  <variable name="x42,12" index="146" value="0"/>
  <variable name="x43,1" index="147" value="1"/>
  <variable name="x9,3" index="148" value="0"/>
  <variable name="x6,5" index="149" value="0"/>
  <variable name="x7,5" index="150" value="0"/>
  <variable name="x8,5" index="151" value="0"/>
  <variable name="x3,7" index="152" value="0"/>
  <variable name="x4,7" index="153" value="0"/>
  <variable name="x5,7" index="154" value="0"/>
  <variable name="x2,8" index="155" value="0"/>
  <variable name="x0,9" index="156" value="0"/>
  <variable name="x1,9" index="157" value="0"/>
  <variable name="x0,11" index="158" value="0"/>
  <variable name="x1,11" index="159" value="0"/>
  <variable name="x2,11" index="160" value="0"/>
  <variable name="x3,11" index="161" value="0"/>
  <variable name="x4,11" index="162" value="0"/>
  <variable name="x5,11" index="163" value="0"/>
  <variable name="x6,11" index="164" value="0"/>
  <variable name="x7,11" index="165" value="0"/>
  <variable name="x8,11" index="166" value="0"/>
  <variable name="x9,11" index="167" value="0"/>
  <variable name="x10,11" index="168" value="0"/>
 </variables>
</CPLEXSolution>
